Test: Urq8_5.cnf
Options: 
WARNING: for repeatability, setting FPU to use double precision
============================[ Problem Statistics ]=============================
|                                                                             |
|  Number of symmetries:          200                                         |
|  Number of invertingSyms:       200                                         |
|  Number of variables:           327                                         |
|  Number of clauses:            3252                                         |
|  Parse time:                   0.00 s                                       |
|                                                                             |
============================[ Search Statistics ]==============================
| Conflicts |          ORIGINAL         |          LEARNT          | Progress |
|           |    Vars  Clauses Literals |    Limit  Clauses Lit/Cl |          |
===============================================================================
|       100 |     327     3252    20004 |     1192      196    138 |  0.001 % |
===============================================================================
restarts              : 1
conflicts             : 202            (50500 /sec)
symconflicts          : 198            (49500 /sec)
decisions             : 205            (0.00 % random) (51250 /sec)
propagations          : 694            (173500 /sec)
sympropagations       : 198            (49500 /sec)
conflict literals     : 18810          (0.05 % deleted)
literals     : 18810          (0.05 % deleted)

HEURISTIC USAGES
random                : 0           
activity w/ lookahead : 0           
activity no lookahead : 0           
original sp           : 205         
sym count             : 0           

Memory used           : 6.00 MB
CPU time              : 0.004 s

UNSATISFIABLE
